50
1 0 12
2 0 19
2 1 16
3 0 1
3 1 5
3 2 11
4 0 20
4 1 18
4 2 14
4 3 5
5 0 19
5 1 10
5 2 15
5 3 1
5 4 16
6 0 7
6 1 6
6 2 5
6 3 6
6 4 6
6 5 20
7 0 3
7 1 14
7 2 4
7 3 17
7 4 12
7 5 8
7 6 9
8 0 6
8 1 4
8 2 19
8 3 11
8 4 7
8 5 12
8 6 11
8 7 2
9 0 18
9 1 17
9 2 9
9 3 20
9 4 6
9 5 2
9 6 1
9 7 12
9 8 7
10 0 17
10 1 20
10 2 10
10 3 19
10 4 8
10 5 8
10 6 11
10 7 17
10 8 13
10 9 17
11 0 20
11 1 16
11 2 4
11 3 10
11 4 10
11 5 14
11 6 5
11 7 7
11 8 14
11 9 6
11 10 12
12 0 16
12 1 5
12 2 19
12 3 8
12 4 17
12 5 9
12 6 19
12 7 5
12 8 16
12 9 2
12 10 12
12 11 17
13 0 8
13 1 16
13 2 11
13 3 11
13 4 10
13 5 9
13 6 7
13 7 7
13 8 1
13 9 10
13 10 19
13 11 19
13 12 11
14 0 9
14 1 17
14 2 14
14 3 20
14 4 8
14 5 12
14 6 4
14 7 8
14 8 5
14 9 12
14 10 6
14 11 20
14 12 19
14 13 17
15 0 2
15 1 3
15 2 13
15 3 4
15 4 17
15 5 15
15 6 12
15 7 8
15 8 11
15 9 14
15 10 4
15 11 1
15 12 11
15 13 17
15 14 17
16 0 15
16 1 13
16 2 7
16 3 1
16 4 19
16 5 10
16 6 3
16 7 4
16 8 5
16 9 2
16 10 11
16 11 5
16 12 15
16 13 13
16 14 6
16 15 20
17 0 6
17 1 20
17 2 11
17 3 9
17 4 18
17 5 14
17 6 4
17 7 11
17 8 14
17 9 17
17 10 16
17 11 8
17 12 4
17 13 16
17 14 15
17 15 16
17 16 11
18 0 7
18 1 9
18 2 1
18 3 8
18 4 1
18 5 19
18 6 10
18 7 2
18 8 10
18 9 7
18 10 9
18 11 20
18 12 1
18 13 14
18 14 8
18 15 2
18 16 13
18 17 11
19 0 5
19 1 15
19 2 18
19 3 20
19 4 13
19 5 6
19 6 15
19 7 3
19 8 3
19 9 14
19 10 6
19 11 7
19 12 20
19 13 6
19 14 11
19 15 5
19 16 15
19 17 15
19 18 10
20 0 4
20 1 18
20 2 11
20 3 18
20 4 20
20 5 7
20 6 8
20 7 18
20 8 12
20 9 11
20 10 16
20 11 11
20 12 20
20 13 3
20 14 13
20 15 14
20 16 14
20 17 1
20 18 14
20 19 19
21 0 6
21 1 14
21 2 17
21 3 4
21 4 1
21 5 10
21 6 11
21 7 13
21 8 15
21 9 8
21 10 7
21 11 18
21 12 7
21 13 16
21 14 13
21 15 8
21 16 7
21 17 4
21 18 11
21 19 15
21 20 14
22 0 17
22 1 12
22 2 4
22 3 15
22 4 16
22 5 11
22 6 17
22 7 19
22 8 3
22 9 20
22 10 19
22 11 7
22 12 12
22 13 8
22 14 3
22 15 3
22 16 19
22 17 11
22 18 12
22 19 9
22 20 7
22 21 12
23 0 2
23 1 7
23 2 14
23 3 20
23 4 19
23 5 5
23 6 7
23 7 6
23 8 18
23 9 20
23 10 5
23 11 20
23 12 17
23 13 15
23 14 16
23 15 3
23 16 14
23 17 5
23 18 7
23 19 14
23 20 7
23 21 9
23 22 8
24 0 7
24 1 13
24 2 12
24 3 5
24 4 13
24 5 19
24 6 7
24 7 16
24 8 11
24 9 16
24 10 12
24 11 10
24 12 9
24 13 17
24 14 1
24 15 15
24 16 17
24 17 12
24 18 14
24 19 10
24 20 20
24 21 13
24 22 13
24 23 5
25 0 18
25 1 16
25 2 20
25 3 1
25 4 11
25 5 7
25 6 19
25 7 16
25 8 20
25 9 7
25 10 19
25 11 17
25 12 16
25 13 10
25 14 13
25 15 19
25 16 20
25 17 18
25 18 16
25 19 1
25 20 5
25 21 7
25 22 14
25 23 5
25 24 10
26 0 13
26 1 18
26 2 10
26 3 15
26 4 1
26 5 3
26 6 18
26 7 18
26 8 7
26 9 11
26 10 6
26 11 14
26 12 2
26 13 3
26 14 4
26 15 14
26 16 14
26 17 4
26 18 4
26 19 2
26 20 11
26 21 1
26 22 14
26 23 6
26 24 7
26 25 19
27 0 10
27 1 16
27 2 13
27 3 14
27 4 3
27 5 12
27 6 12
27 7 18
27 8 19
27 9 15
27 10 8
27 11 9
27 12 17
27 13 16
27 14 6
27 15 16
27 16 6
27 17 9
27 18 4
27 19 8
27 20 20
27 21 16
27 22 2
27 23 20
27 24 19
27 25 13
27 26 10
28 0 4
28 1 12
28 2 8
28 3 19
28 4 4
28 5 16
28 6 14
28 7 15
28 8 17
28 9 8
28 10 11
28 11 7
28 12 12
28 13 11
28 14 8
28 15 4
28 16 9
28 17 15
28 18 13
28 19 2
28 20 5
28 21 10
28 22 20
28 23 19
28 24 16
28 25 2
28 26 12
28 27 8
29 0 1
29 1 14
29 2 16
29 3 1
29 4 18
29 5 15
29 6 10
29 7 6
29 8 13
29 9 19
29 10 10
29 11 9
29 12 7
29 13 4
29 14 13
29 15 8
29 16 20
29 17 11
29 18 4
29 19 9
29 20 12
29 21 6
29 22 18
29 23 20
29 24 19
29 25 5
29 26 14
29 27 19
29 28 5
30 0 8
30 1 7
30 2 8
30 3 9
30 4 4
30 5 14
30 6 14
30 7 19
30 8 17
30 9 5
30 10 17
30 11 11
30 12 9
30 13 13
30 14 1
30 15 10
30 16 6
30 17 16
30 18 7
30 19 10
30 20 19
30 21 13
30 22 5
30 23 15
30 24 13
30 25 7
30 26 6
30 27 8
30 28 3
30 29 14
31 0 5
31 1 5
31 2 19
31 3 17
31 4 3
31 5 9
31 6 13
31 7 9
31 8 5
31 9 19
31 10 16
31 11 9
31 12 9
31 13 16
31 14 15
31 15 9
31 16 15
31 17 16
31 18 9
31 19 17
31 20 6
31 21 6
31 22 3
31 23 16
31 24 3
31 25 1
31 26 14
31 27 16
31 28 20
31 29 7
31 30 8
32 0 20
32 1 1
32 2 18
32 3 9
32 4 14
32 5 7
32 6 5
32 7 7
32 8 17
32 9 20
32 10 7
32 11 19
32 12 1
32 13 15
32 14 5
32 15 14
32 16 1
32 17 14
32 18 12
32 19 17
32 20 2
32 21 4
32 22 19
32 23 4
32 24 13
32 25 8
32 26 19
32 27 16
32 28 5
32 29 1
32 30 17
32 31 5
33 0 3
33 1 19
33 2 16
33 3 17
33 4 20
33 5 17
33 6 3
33 7 1
33 8 7
33 9 6
33 10 6
33 11 15
33 12 20
33 13 13
33 14 7
33 15 17
33 16 2
33 17 19
33 18 8
33 19 8
33 20 7
33 21 6
33 22 10
33 23 6
33 24 15
33 25 10
33 26 20
33 27 13
33 28 14
33 29 16
33 30 20
33 31 10
33 32 9
34 0 6
34 1 16
34 2 10
34 3 4
34 4 19
34 5 2
34 6 4
34 7 1
34 8 19
34 9 11
34 10 16
34 11 4
34 12 10
34 13 4
34 14 19
34 15 16
34 16 8
34 17 7
34 18 5
34 19 17
34 20 12
34 21 6
34 22 1
34 23 2
34 24 13
34 25 16
34 26 6
34 27 18
34 28 6
34 29 1
34 30 12
34 31 13
34 32 13
34 33 4
35 0 13
35 1 7
35 2 17
35 3 20
35 4 10
35 5 10
35 6 10
35 7 5
35 8 14
35 9 9
35 10 16
35 11 5
35 12 5
35 13 19
35 14 9
35 15 8
35 16 2
35 17 5
35 18 4
35 19 19
35 20 1
35 21 5
35 22 19
35 23 18
35 24 1
35 25 10
35 26 20
35 27 1
35 28 9
35 29 17
35 30 7
35 31 6
35 32 18
35 33 12
35 34 1
36 0 8
36 1 4
36 2 11
36 3 18
36 4 2
36 5 20
36 6 3
36 7 8
36 8 10
36 9 20
36 10 11
36 11 5
36 12 2
36 13 17
36 14 5
36 15 12
36 16 1
36 17 4
36 18 20
36 19 1
36 20 17
36 21 3
36 22 18
36 23 16
36 24 1
36 25 11
36 26 11
36 27 13
36 28 13
36 29 11
36 30 6
36 31 17
36 32 6
36 33 14
36 34 10
36 35 11
37 0 2
37 1 19
37 2 11
37 3 19
37 4 4
37 5 16
37 6 20
37 7 6
37 8 11
37 9 13
37 10 16
37 11 7
37 12 8
37 13 2
37 14 9
37 15 9
37 16 15
37 17 4
37 18 19
37 19 15
37 20 15
37 21 10
37 22 8
37 23 5
37 24 14
37 25 2
37 26 18
37 27 12
37 28 7
37 29 14
37 30 15
37 31 20
37 32 7
37 33 14
37 34 7
37 35 7
37 36 16
38 0 1
38 1 15
38 2 14
38 3 8
38 4 9
38 5 18
38 6 5
38 7 13
38 8 11
38 9 16
38 10 15
38 11 10
38 12 7
38 13 4
38 14 3
38 15 11
38 16 6
38 17 6
38 18 16
38 19 16
38 20 10
38 21 18
38 22 3
38 23 10
38 24 18
38 25 16
38 26 4
38 27 4
38 28 18
38 29 13
38 30 3
38 31 18
38 32 8
38 33 8
38 34 13
38 35 11
38 36 13
38 37 9
39 0 18
39 1 5
39 2 16
39 3 7
39 4 8
39 5 12
39 6 19
39 7 10
39 8 6
39 9 10
39 10 20
39 11 20
39 12 1
39 13 5
39 14 12
39 15 12
39 16 7
39 17 20
39 18 20
39 19 4
39 20 1
39 21 20
39 22 18
39 23 2
39 24 17
39 25 3
39 26 19
39 27 11
39 28 14
39 29 3
39 30 2
39 31 4
39 32 18
39 33 10
39 34 1
39 35 7
39 36 16
39 37 20
39 38 14
40 0 1
40 1 14
40 2 1
40 3 15
40 4 7
40 5 10
40 6 18
40 7 15
40 8 4
40 9 8
40 10 6
40 11 11
40 12 8
40 13 13
40 14 1
40 15 5
40 16 10
40 17 9
40 18 19
40 19 17
40 20 14
40 21 8
40 22 12
40 23 15
40 24 13
40 25 12
40 26 6
40 27 19
40 28 18
40 29 16
40 30 2
40 31 8
40 32 6
40 33 8
40 34 20
40 35 12
40 36 19
40 37 17
40 38 5
40 39 19
41 0 11
41 1 2
41 2 1
41 3 2
41 4 12
41 5 14
41 6 10
41 7 2
41 8 18
41 9 17
41 10 17
41 11 16
41 12 2
41 13 10
41 14 6
41 15 20
41 16 1
41 17 2
41 18 2
41 19 15
41 20 19
41 21 5
41 22 9
41 23 19
41 24 17
41 25 13
41 26 10
41 27 11
41 28 5
41 29 20
41 30 8
41 31 6
41 32 1
41 33 12
41 34 16
41 35 13
41 36 19
41 37 4
41 38 5
41 39 13
41 40 7
42 0 3
42 1 17
42 2 2
42 3 15
42 4 8
42 5 14
42 6 3
42 7 1
42 8 20
42 9 18
42 10 1
42 11 2
42 12 3
42 13 20
42 14 2
42 15 6
42 16 1
42 17 17
42 18 3
42 19 4
42 20 20
42 21 17
42 22 12
42 23 17
42 24 10
42 25 2
42 26 19
42 27 19
42 28 8
42 29 17
42 30 10
42 31 1
42 32 1
42 33 15
42 34 7
42 35 4
42 36 13
42 37 1
42 38 16
42 39 19
42 40 11
42 41 20
43 0 17
43 1 9
43 2 5
43 3 15
43 4 15
43 5 5
43 6 2
43 7 11
43 8 19
43 9 11
43 10 1
43 11 9
43 12 10
43 13 5
43 14 8
43 15 5
43 16 5
43 17 16
43 18 10
43 19 8
43 20 2
43 21 20
43 22 8
43 23 17
43 24 17
43 25 13
43 26 5
43 27 10
43 28 2
43 29 7
43 30 4
43 31 19
43 32 5
43 33 13
43 34 7
43 35 13
43 36 3
43 37 3
43 38 10
43 39 20
43 40 15
43 41 6
43 42 20
44 0 5
44 1 3
44 2 1
44 3 5
44 4 7
44 5 7
44 6 4
44 7 3
44 8 11
44 9 1
44 10 1
44 11 11
44 12 20
44 13 15
44 14 11
44 15 4
44 16 17
44 17 7
44 18 3
44 19 2
44 20 13
44 21 12
44 22 18
44 23 17
44 24 12
44 25 13
44 26 4
44 27 16
44 28 11
44 29 2
44 30 18
44 31 19
44 32 10
44 33 8
44 34 6
44 35 15
44 36 4
44 37 1
44 38 2
44 39 10
44 40 5
44 41 12
44 42 13
44 43 12
45 0 6
45 1 17
45 2 16
45 3 13
45 4 10
45 5 8
45 6 9
45 7 4
45 8 18
45 9 4
45 10 9
45 11 19
45 12 9
45 13 18
45 14 5
45 15 9
45 16 8
45 17 13
45 18 3
45 19 8
45 20 10
45 21 6
45 22 2
45 23 17
45 24 19
45 25 17
45 26 15
45 27 18
45 28 15
45 29 4
45 30 2
45 31 2
45 32 5
45 33 13
45 34 10
45 35 11
45 36 7
45 37 17
45 38 8
45 39 18
45 40 13
45 41 7
45 42 18
45 43 4
45 44 12
46 0 4
46 1 15
46 2 9
46 3 9
46 4 14
46 5 20
46 6 16
46 7 11
46 8 10
46 9 14
46 10 2
46 11 9
46 12 18
46 13 11
46 14 5
46 15 12
46 16 10
46 17 2
46 18 3
46 19 7
46 20 19
46 21 19
46 22 20
46 23 15
46 24 15
46 25 5
46 26 9
46 27 13
46 28 3
46 29 1
46 30 17
46 31 6
46 32 3
46 33 14
46 34 15
46 35 4
46 36 8
46 37 9
46 38 18
46 39 15
46 40 13
46 41 5
46 42 18
46 43 15
46 44 18
46 45 19
47 0 6
47 1 5
47 2 3
47 3 14
47 4 20
47 5 8
47 6 4
47 7 8
47 8 10
47 9 7
47 10 14
47 11 2
47 12 5
47 13 11
47 14 11
47 15 11
47 16 7
47 17 3
47 18 16
47 19 8
47 20 11
47 21 17
47 22 7
47 23 11
47 24 4
47 25 20
47 26 16
47 27 16
47 28 5
47 29 4
47 30 2
47 31 10
47 32 3
47 33 6
47 34 2
47 35 9
47 36 9
47 37 20
47 38 16
47 39 3
47 40 12
47 41 1
47 42 12
47 43 17
47 44 5
47 45 13
47 46 20
48 0 2
48 1 12
48 2 8
48 3 3
48 4 9
48 5 14
48 6 16
48 7 15
48 8 6
48 9 6
48 10 19
48 11 18
48 12 3
48 13 16
48 14 6
48 15 18
48 16 9
48 17 14
48 18 6
48 19 17
48 20 2
48 21 4
48 22 17
48 23 17
48 24 5
48 25 4
48 26 18
48 27 13
48 28 4
48 29 11
48 30 18
48 31 15
48 32 4
48 33 10
48 34 10
48 35 13
48 36 13
48 37 7
48 38 20
48 39 4
48 40 8
48 41 9
48 42 15
48 43 19
48 44 15
48 45 11
48 46 14
48 47 5
49 0 1
49 1 17
49 2 9
49 3 1
49 4 11
49 5 2
49 6 5
49 7 3
49 8 14
49 9 15
49 10 19
49 11 4
49 12 8
49 13 12
49 14 17
49 15 5
49 16 2
49 17 4
49 18 5
49 19 10
49 20 1
49 21 19
49 22 12
49 23 14
49 24 7
49 25 13
49 26 2
49 27 15
49 28 15
49 29 20
49 30 1
49 31 19
49 32 1
49 33 5
49 34 16
49 35 15
49 36 14
49 37 20
49 38 7
49 39 16
49 40 19
49 41 2
49 42 6
49 43 15
49 44 7
49 45 12
49 46 8
49 47 13
49 48 15
